(set-logic HORN)
(declare-datatypes ((Bool_0 0)) (((false_0 ) (true_0 ))))
(declare-fun diseqBool_0 (Bool_0 Bool_0) Bool)
(declare-fun and_0 (Bool_0 Bool_0 Bool_0) Bool)
(declare-fun or_0 (Bool_0 Bool_0 Bool_0) Bool)
(declare-datatypes ((T_0 0)) (((A_0 ) (B_0 ) (C_0 ))))
(declare-fun diseqT_0 (T_0 T_0) Bool)
(declare-datatypes ((list_0 0)) (((nil_0 ) (cons_0 (head_0 T_0) (tail_0 list_0)))))
(declare-datatypes ((R_0 0)) (((Nil_1 ) (Eps_0 ) (Atom_0 (projAtom_0 T_0)) (x_0 (proj_0 R_0) (proj_1 R_0)) (x_1 (proj_2 R_0) (proj_3 R_0)) (x_2 (proj_4 R_0) (proj_5 R_0)) (Star_0 (projStar_0 R_0)))))
(declare-fun x_3 (R_0 R_0 R_0) Bool)
(declare-fun x_9 (R_0 R_0 R_0) Bool)
(declare-fun x_13 (R_0 R_0 R_0) Bool)
(declare-fun eps_1 (Bool_0 R_0) Bool)
(declare-fun step_0 (R_0 R_0 T_0) Bool)
(declare-fun rec_0 (Bool_0 R_0 list_0) Bool)
(assert (diseqBool_0 false_0 true_0))
(assert (diseqBool_0 true_0 false_0))
(assert (and_0 false_0 false_0 false_0))
(assert (and_0 false_0 true_0 false_0))
(assert (and_0 false_0 false_0 true_0))
(assert (and_0 true_0 true_0 true_0))
(assert (or_0 false_0 false_0 false_0))
(assert (or_0 true_0 true_0 false_0))
(assert (or_0 true_0 false_0 true_0))
(assert (or_0 true_0 true_0 true_0))
(assert (diseqT_0 A_0 B_0))
(assert (diseqT_0 A_0 C_0))
(assert (diseqT_0 B_0 A_0))
(assert (diseqT_0 C_0 A_0))
(assert (diseqT_0 B_0 C_0))
(assert (diseqT_0 C_0 B_0))
(assert (forall ((y_0 R_0))
	(x_3 Nil_1 Nil_1 y_0)))
(assert (forall ((x_5 R_0) (x_432 T_0))
	(x_3 Nil_1 (Atom_0 x_432) Nil_1)))
(assert (forall ((x_5 R_0))
	(x_3 Nil_1 Eps_0 Nil_1)))
(assert (forall ((x_5 R_0) (x_433 R_0))
	(x_3 Nil_1 (Star_0 x_433) Nil_1)))
(assert (forall ((x_5 R_0) (x_434 R_0) (x_435 R_0))
	(x_3 Nil_1 (x_0 x_434 x_435) Nil_1)))
(assert (forall ((x_5 R_0) (x_436 R_0) (x_437 R_0))
	(x_3 Nil_1 (x_1 x_436 x_437) Nil_1)))
(assert (forall ((x_5 R_0) (x_438 R_0) (x_439 R_0))
	(x_3 Nil_1 (x_2 x_438 x_439) Nil_1)))
(assert (forall ((x_6 R_0) (x_88 T_0) (x_5 R_0))
	(x_3 (Atom_0 x_88) Eps_0 (Atom_0 x_88))))
(assert (forall ((x_6 R_0) (x_5 R_0))
	(x_3 Eps_0 Eps_0 Eps_0)))
(assert (forall ((x_6 R_0) (x_89 R_0) (x_5 R_0))
	(x_3 (Star_0 x_89) Eps_0 (Star_0 x_89))))
(assert (forall ((x_6 R_0) (x_90 R_0) (x_91 R_0) (x_5 R_0))
	(x_3 (x_0 x_90 x_91) Eps_0 (x_0 x_90 x_91))))
(assert (forall ((x_6 R_0) (x_92 R_0) (x_93 R_0) (x_5 R_0))
	(x_3 (x_1 x_92 x_93) Eps_0 (x_1 x_92 x_93))))
(assert (forall ((x_6 R_0) (x_94 R_0) (x_95 R_0) (x_5 R_0))
	(x_3 (x_2 x_94 x_95) Eps_0 (x_2 x_94 x_95))))
(assert (forall ((x_7 R_0) (x_32 T_0) (x_6 R_0) (x_5 R_0))
	(x_3 (Atom_0 x_32) (Atom_0 x_32) Eps_0)))
(assert (forall ((x_7 R_0) (x_33 R_0) (x_6 R_0) (x_5 R_0))
	(x_3 (Star_0 x_33) (Star_0 x_33) Eps_0)))
(assert (forall ((x_7 R_0) (x_34 R_0) (x_35 R_0) (x_6 R_0) (x_5 R_0))
	(x_3 (x_0 x_34 x_35) (x_0 x_34 x_35) Eps_0)))
(assert (forall ((x_7 R_0) (x_36 R_0) (x_37 R_0) (x_6 R_0) (x_5 R_0))
	(x_3 (x_1 x_36 x_37) (x_1 x_36 x_37) Eps_0)))
(assert (forall ((x_7 R_0) (x_38 R_0) (x_39 R_0) (x_6 R_0) (x_5 R_0))
	(x_3 (x_2 x_38 x_39) (x_2 x_38 x_39) Eps_0)))
(assert (forall ((x_8 R_0) (x_7 R_0) (x_40 T_0) (x_6 R_0) (x_144 T_0) (x_5 R_0))
	(x_3 (x_2 (Atom_0 x_40) (Atom_0 x_144)) (Atom_0 x_40) (Atom_0 x_144))))
(assert (forall ((x_8 R_0) (x_7 R_0) (x_41 R_0) (x_6 R_0) (x_160 T_0) (x_5 R_0))
	(x_3 (x_2 (Star_0 x_41) (Atom_0 x_160)) (Star_0 x_41) (Atom_0 x_160))))
(assert (forall ((x_8 R_0) (x_7 R_0) (x_42 R_0) (x_43 R_0) (x_6 R_0) (x_168 T_0) (x_5 R_0))
	(x_3 (x_2 (x_0 x_42 x_43) (Atom_0 x_168)) (x_0 x_42 x_43) (Atom_0 x_168))))
(assert (forall ((x_8 R_0) (x_7 R_0) (x_44 R_0) (x_45 R_0) (x_6 R_0) (x_176 T_0) (x_5 R_0))
	(x_3 (x_2 (x_1 x_44 x_45) (Atom_0 x_176)) (x_1 x_44 x_45) (Atom_0 x_176))))
(assert (forall ((x_8 R_0) (x_7 R_0) (x_6 R_0) (x_184 T_0) (x_5 R_0) (x_1022 R_0) (x_1023 R_0))
	(x_3 (x_2 (x_2 x_1022 x_1023) (Atom_0 x_184)) (x_2 x_1022 x_1023) (Atom_0 x_184))))
(assert (forall ((x_8 R_0) (x_7 R_0) (x_6 R_0) (x_241 R_0) (x_5 R_0) (x_1368 T_0))
	(x_3 (x_2 (Atom_0 x_1368) (Star_0 x_241)) (Atom_0 x_1368) (Star_0 x_241))))
(assert (forall ((x_8 R_0) (x_25 R_0) (x_7 R_0) (x_6 R_0) (x_5 R_0) (x_1465 R_0))
	(x_3 (x_2 (Star_0 x_1465) (Star_0 x_25)) (Star_0 x_1465) (Star_0 x_25))))
(assert (forall ((x_8 R_0) (x_25 R_0) (x_7 R_0) (x_6 R_0) (x_5 R_0) (x_1514 R_0) (x_1515 R_0))
	(x_3 (x_2 (x_0 x_1514 x_1515) (Star_0 x_25)) (x_0 x_1514 x_1515) (Star_0 x_25))))
(assert (forall ((x_8 R_0) (x_25 R_0) (x_7 R_0) (x_6 R_0) (x_5 R_0) (x_1564 R_0) (x_1565 R_0))
	(x_3 (x_2 (x_1 x_1564 x_1565) (Star_0 x_25)) (x_1 x_1564 x_1565) (Star_0 x_25))))
(assert (forall ((x_8 R_0) (x_25 R_0) (x_7 R_0) (x_6 R_0) (x_5 R_0) (x_1614 R_0) (x_1615 R_0))
	(x_3 (x_2 (x_2 x_1614 x_1615) (Star_0 x_25)) (x_2 x_1614 x_1615) (Star_0 x_25))))
(assert (forall ((x_8 R_0) (x_26 R_0) (x_27 R_0) (x_7 R_0) (x_6 R_0) (x_5 R_0) (x_1664 T_0))
	(x_3 (x_2 (Atom_0 x_1664) (x_0 x_26 x_27)) (Atom_0 x_1664) (x_0 x_26 x_27))))
(assert (forall ((x_8 R_0) (x_26 R_0) (x_27 R_0) (x_7 R_0) (x_6 R_0) (x_5 R_0) (x_1761 R_0))
	(x_3 (x_2 (Star_0 x_1761) (x_0 x_26 x_27)) (Star_0 x_1761) (x_0 x_26 x_27))))
(assert (forall ((x_8 R_0) (x_26 R_0) (x_27 R_0) (x_7 R_0) (x_6 R_0) (x_5 R_0) (x_1810 R_0) (x_1811 R_0))
	(x_3 (x_2 (x_0 x_1810 x_1811) (x_0 x_26 x_27)) (x_0 x_1810 x_1811) (x_0 x_26 x_27))))
(assert (forall ((x_8 R_0) (x_26 R_0) (x_27 R_0) (x_7 R_0) (x_6 R_0) (x_5 R_0) (x_1860 R_0) (x_1861 R_0))
	(x_3 (x_2 (x_1 x_1860 x_1861) (x_0 x_26 x_27)) (x_1 x_1860 x_1861) (x_0 x_26 x_27))))
(assert (forall ((x_8 R_0) (x_26 R_0) (x_27 R_0) (x_7 R_0) (x_6 R_0) (x_5 R_0) (x_1910 R_0) (x_1911 R_0))
	(x_3 (x_2 (x_2 x_1910 x_1911) (x_0 x_26 x_27)) (x_2 x_1910 x_1911) (x_0 x_26 x_27))))
(assert (forall ((x_8 R_0) (x_28 R_0) (x_29 R_0) (x_7 R_0) (x_6 R_0) (x_5 R_0) (x_1960 T_0))
	(x_3 (x_2 (Atom_0 x_1960) (x_1 x_28 x_29)) (Atom_0 x_1960) (x_1 x_28 x_29))))
(assert (forall ((x_8 R_0) (x_28 R_0) (x_29 R_0) (x_7 R_0) (x_6 R_0) (x_5 R_0) (x_2057 R_0))
	(x_3 (x_2 (Star_0 x_2057) (x_1 x_28 x_29)) (Star_0 x_2057) (x_1 x_28 x_29))))
(assert (forall ((x_8 R_0) (x_28 R_0) (x_29 R_0) (x_7 R_0) (x_6 R_0) (x_5 R_0) (x_2106 R_0) (x_2107 R_0))
	(x_3 (x_2 (x_0 x_2106 x_2107) (x_1 x_28 x_29)) (x_0 x_2106 x_2107) (x_1 x_28 x_29))))
(assert (forall ((x_8 R_0) (x_28 R_0) (x_29 R_0) (x_7 R_0) (x_6 R_0) (x_5 R_0) (x_2156 R_0) (x_2157 R_0))
	(x_3 (x_2 (x_1 x_2156 x_2157) (x_1 x_28 x_29)) (x_1 x_2156 x_2157) (x_1 x_28 x_29))))
(assert (forall ((x_8 R_0) (x_28 R_0) (x_29 R_0) (x_7 R_0) (x_6 R_0) (x_5 R_0) (x_2206 R_0) (x_2207 R_0))
	(x_3 (x_2 (x_2 x_2206 x_2207) (x_1 x_28 x_29)) (x_2 x_2206 x_2207) (x_1 x_28 x_29))))
(assert (forall ((x_8 R_0) (x_30 R_0) (x_31 R_0) (x_7 R_0) (x_6 R_0) (x_5 R_0) (x_2256 T_0))
	(x_3 (x_2 (Atom_0 x_2256) (x_2 x_30 x_31)) (Atom_0 x_2256) (x_2 x_30 x_31))))
(assert (forall ((x_8 R_0) (x_30 R_0) (x_31 R_0) (x_7 R_0) (x_6 R_0) (x_5 R_0) (x_2353 R_0))
	(x_3 (x_2 (Star_0 x_2353) (x_2 x_30 x_31)) (Star_0 x_2353) (x_2 x_30 x_31))))
(assert (forall ((x_8 R_0) (x_30 R_0) (x_31 R_0) (x_7 R_0) (x_6 R_0) (x_5 R_0) (x_2402 R_0) (x_2403 R_0))
	(x_3 (x_2 (x_0 x_2402 x_2403) (x_2 x_30 x_31)) (x_0 x_2402 x_2403) (x_2 x_30 x_31))))
(assert (forall ((x_8 R_0) (x_30 R_0) (x_31 R_0) (x_7 R_0) (x_6 R_0) (x_5 R_0) (x_2452 R_0) (x_2453 R_0))
	(x_3 (x_2 (x_1 x_2452 x_2453) (x_2 x_30 x_31)) (x_1 x_2452 x_2453) (x_2 x_30 x_31))))
(assert (forall ((x_8 R_0) (x_30 R_0) (x_31 R_0) (x_7 R_0) (x_6 R_0) (x_5 R_0) (x_2502 R_0) (x_2503 R_0))
	(x_3 (x_2 (x_2 x_2502 x_2503) (x_2 x_30 x_31)) (x_2 x_2502 x_2503) (x_2 x_30 x_31))))
(assert (forall ((x_4252 R_0))
	(x_9 x_4252 Nil_1 x_4252)))
(assert (forall ((x_11 R_0) (x_2512 T_0))
	(x_9 (Atom_0 x_2512) (Atom_0 x_2512) Nil_1)))
(assert (forall ((x_11 R_0))
	(x_9 Eps_0 Eps_0 Nil_1)))
(assert (forall ((x_11 R_0) (x_2513 R_0))
	(x_9 (Star_0 x_2513) (Star_0 x_2513) Nil_1)))
(assert (forall ((x_11 R_0) (x_2514 R_0) (x_2515 R_0))
	(x_9 (x_0 x_2514 x_2515) (x_0 x_2514 x_2515) Nil_1)))
(assert (forall ((x_11 R_0) (x_2516 R_0) (x_2517 R_0))
	(x_9 (x_1 x_2516 x_2517) (x_1 x_2516 x_2517) Nil_1)))
(assert (forall ((x_11 R_0) (x_2518 R_0) (x_2519 R_0))
	(x_9 (x_2 x_2518 x_2519) (x_2 x_2518 x_2519) Nil_1)))
(assert (forall ((x_12 R_0) (x_2504 T_0) (x_11 R_0) (x_2520 T_0))
	(x_9 (x_0 (Atom_0 x_2520) (Atom_0 x_2504)) (Atom_0 x_2520) (Atom_0 x_2504))))
(assert (forall ((x_12 R_0) (x_2504 T_0) (x_11 R_0))
	(x_9 (x_0 Eps_0 (Atom_0 x_2504)) Eps_0 (Atom_0 x_2504))))
(assert (forall ((x_12 R_0) (x_2504 T_0) (x_11 R_0) (x_2521 R_0))
	(x_9 (x_0 (Star_0 x_2521) (Atom_0 x_2504)) (Star_0 x_2521) (Atom_0 x_2504))))
(assert (forall ((x_12 R_0) (x_2504 T_0) (x_11 R_0) (x_2522 R_0) (x_2523 R_0))
	(x_9 (x_0 (x_0 x_2522 x_2523) (Atom_0 x_2504)) (x_0 x_2522 x_2523) (Atom_0 x_2504))))
(assert (forall ((x_12 R_0) (x_2504 T_0) (x_11 R_0) (x_2524 R_0) (x_2525 R_0))
	(x_9 (x_0 (x_1 x_2524 x_2525) (Atom_0 x_2504)) (x_1 x_2524 x_2525) (Atom_0 x_2504))))
(assert (forall ((x_12 R_0) (x_2504 T_0) (x_11 R_0) (x_2526 R_0) (x_2527 R_0))
	(x_9 (x_0 (x_2 x_2526 x_2527) (Atom_0 x_2504)) (x_2 x_2526 x_2527) (Atom_0 x_2504))))
(assert (forall ((x_12 R_0) (x_11 R_0) (x_2528 T_0))
	(x_9 (x_0 (Atom_0 x_2528) Eps_0) (Atom_0 x_2528) Eps_0)))
(assert (forall ((x_12 R_0) (x_11 R_0))
	(x_9 (x_0 Eps_0 Eps_0) Eps_0 Eps_0)))
(assert (forall ((x_12 R_0) (x_11 R_0) (x_2529 R_0))
	(x_9 (x_0 (Star_0 x_2529) Eps_0) (Star_0 x_2529) Eps_0)))
(assert (forall ((x_12 R_0) (x_11 R_0) (x_2530 R_0) (x_2531 R_0))
	(x_9 (x_0 (x_0 x_2530 x_2531) Eps_0) (x_0 x_2530 x_2531) Eps_0)))
(assert (forall ((x_12 R_0) (x_11 R_0) (x_2532 R_0) (x_2533 R_0))
	(x_9 (x_0 (x_1 x_2532 x_2533) Eps_0) (x_1 x_2532 x_2533) Eps_0)))
(assert (forall ((x_12 R_0) (x_11 R_0) (x_2534 R_0) (x_2535 R_0))
	(x_9 (x_0 (x_2 x_2534 x_2535) Eps_0) (x_2 x_2534 x_2535) Eps_0)))
(assert (forall ((x_12 R_0) (x_2505 R_0) (x_11 R_0) (x_2536 T_0))
	(x_9 (x_0 (Atom_0 x_2536) (Star_0 x_2505)) (Atom_0 x_2536) (Star_0 x_2505))))
(assert (forall ((x_12 R_0) (x_2505 R_0) (x_11 R_0))
	(x_9 (x_0 Eps_0 (Star_0 x_2505)) Eps_0 (Star_0 x_2505))))
(assert (forall ((x_12 R_0) (x_2505 R_0) (x_11 R_0) (x_2537 R_0))
	(x_9 (x_0 (Star_0 x_2537) (Star_0 x_2505)) (Star_0 x_2537) (Star_0 x_2505))))
(assert (forall ((x_12 R_0) (x_2505 R_0) (x_11 R_0) (x_2538 R_0) (x_2539 R_0))
	(x_9 (x_0 (x_0 x_2538 x_2539) (Star_0 x_2505)) (x_0 x_2538 x_2539) (Star_0 x_2505))))
(assert (forall ((x_12 R_0) (x_2505 R_0) (x_11 R_0) (x_2540 R_0) (x_2541 R_0))
	(x_9 (x_0 (x_1 x_2540 x_2541) (Star_0 x_2505)) (x_1 x_2540 x_2541) (Star_0 x_2505))))
(assert (forall ((x_12 R_0) (x_2505 R_0) (x_11 R_0) (x_2542 R_0) (x_2543 R_0))
	(x_9 (x_0 (x_2 x_2542 x_2543) (Star_0 x_2505)) (x_2 x_2542 x_2543) (Star_0 x_2505))))
(assert (forall ((x_12 R_0) (x_2506 R_0) (x_2507 R_0) (x_11 R_0) (x_2544 T_0))
	(x_9 (x_0 (Atom_0 x_2544) (x_0 x_2506 x_2507)) (Atom_0 x_2544) (x_0 x_2506 x_2507))))
(assert (forall ((x_12 R_0) (x_2506 R_0) (x_2507 R_0) (x_11 R_0))
	(x_9 (x_0 Eps_0 (x_0 x_2506 x_2507)) Eps_0 (x_0 x_2506 x_2507))))
(assert (forall ((x_12 R_0) (x_2506 R_0) (x_2507 R_0) (x_11 R_0) (x_2545 R_0))
	(x_9 (x_0 (Star_0 x_2545) (x_0 x_2506 x_2507)) (Star_0 x_2545) (x_0 x_2506 x_2507))))
(assert (forall ((x_12 R_0) (x_2506 R_0) (x_2507 R_0) (x_11 R_0) (x_2546 R_0) (x_2547 R_0))
	(x_9 (x_0 (x_0 x_2546 x_2547) (x_0 x_2506 x_2507)) (x_0 x_2546 x_2547) (x_0 x_2506 x_2507))))
(assert (forall ((x_12 R_0) (x_2506 R_0) (x_2507 R_0) (x_11 R_0) (x_2548 R_0) (x_2549 R_0))
	(x_9 (x_0 (x_1 x_2548 x_2549) (x_0 x_2506 x_2507)) (x_1 x_2548 x_2549) (x_0 x_2506 x_2507))))
(assert (forall ((x_12 R_0) (x_2506 R_0) (x_2507 R_0) (x_11 R_0) (x_2550 R_0) (x_2551 R_0))
	(x_9 (x_0 (x_2 x_2550 x_2551) (x_0 x_2506 x_2507)) (x_2 x_2550 x_2551) (x_0 x_2506 x_2507))))
(assert (forall ((x_12 R_0) (x_2508 R_0) (x_2509 R_0) (x_11 R_0) (x_2552 T_0))
	(x_9 (x_0 (Atom_0 x_2552) (x_1 x_2508 x_2509)) (Atom_0 x_2552) (x_1 x_2508 x_2509))))
(assert (forall ((x_12 R_0) (x_2508 R_0) (x_2509 R_0) (x_11 R_0))
	(x_9 (x_0 Eps_0 (x_1 x_2508 x_2509)) Eps_0 (x_1 x_2508 x_2509))))
(assert (forall ((x_12 R_0) (x_2508 R_0) (x_2509 R_0) (x_11 R_0) (x_2553 R_0))
	(x_9 (x_0 (Star_0 x_2553) (x_1 x_2508 x_2509)) (Star_0 x_2553) (x_1 x_2508 x_2509))))
(assert (forall ((x_12 R_0) (x_2508 R_0) (x_2509 R_0) (x_11 R_0) (x_2554 R_0) (x_2555 R_0))
	(x_9 (x_0 (x_0 x_2554 x_2555) (x_1 x_2508 x_2509)) (x_0 x_2554 x_2555) (x_1 x_2508 x_2509))))
(assert (forall ((x_12 R_0) (x_2508 R_0) (x_2509 R_0) (x_11 R_0) (x_2556 R_0) (x_2557 R_0))
	(x_9 (x_0 (x_1 x_2556 x_2557) (x_1 x_2508 x_2509)) (x_1 x_2556 x_2557) (x_1 x_2508 x_2509))))
(assert (forall ((x_12 R_0) (x_2508 R_0) (x_2509 R_0) (x_11 R_0) (x_2558 R_0) (x_2559 R_0))
	(x_9 (x_0 (x_2 x_2558 x_2559) (x_1 x_2508 x_2509)) (x_2 x_2558 x_2559) (x_1 x_2508 x_2509))))
(assert (forall ((x_12 R_0) (x_2510 R_0) (x_2511 R_0) (x_11 R_0) (x_2560 T_0))
	(x_9 (x_0 (Atom_0 x_2560) (x_2 x_2510 x_2511)) (Atom_0 x_2560) (x_2 x_2510 x_2511))))
(assert (forall ((x_12 R_0) (x_2510 R_0) (x_2511 R_0) (x_11 R_0))
	(x_9 (x_0 Eps_0 (x_2 x_2510 x_2511)) Eps_0 (x_2 x_2510 x_2511))))
(assert (forall ((x_12 R_0) (x_2510 R_0) (x_2511 R_0) (x_11 R_0) (x_2561 R_0))
	(x_9 (x_0 (Star_0 x_2561) (x_2 x_2510 x_2511)) (Star_0 x_2561) (x_2 x_2510 x_2511))))
(assert (forall ((x_12 R_0) (x_2510 R_0) (x_2511 R_0) (x_11 R_0) (x_2562 R_0) (x_2563 R_0))
	(x_9 (x_0 (x_0 x_2562 x_2563) (x_2 x_2510 x_2511)) (x_0 x_2562 x_2563) (x_2 x_2510 x_2511))))
(assert (forall ((x_12 R_0) (x_2510 R_0) (x_2511 R_0) (x_11 R_0) (x_2564 R_0) (x_2565 R_0))
	(x_9 (x_0 (x_1 x_2564 x_2565) (x_2 x_2510 x_2511)) (x_1 x_2564 x_2565) (x_2 x_2510 x_2511))))
(assert (forall ((x_12 R_0) (x_2510 R_0) (x_2511 R_0) (x_11 R_0) (x_2566 R_0) (x_2567 R_0))
	(x_9 (x_0 (x_2 x_2566 x_2567) (x_2 x_2510 x_2511)) (x_2 x_2566 x_2567) (x_2 x_2510 x_2511))))
(assert (forall ((y_2 R_0))
	(x_13 Nil_1 Nil_1 y_2)))
(assert (forall ((x_15 R_0) (x_2576 T_0))
	(x_13 Nil_1 (Atom_0 x_2576) Nil_1)))
(assert (forall ((x_15 R_0))
	(x_13 Nil_1 Eps_0 Nil_1)))
(assert (forall ((x_15 R_0) (x_2577 R_0))
	(x_13 Nil_1 (Star_0 x_2577) Nil_1)))
(assert (forall ((x_15 R_0) (x_2578 R_0) (x_2579 R_0))
	(x_13 Nil_1 (x_0 x_2578 x_2579) Nil_1)))
(assert (forall ((x_15 R_0) (x_2580 R_0) (x_2581 R_0))
	(x_13 Nil_1 (x_1 x_2580 x_2581) Nil_1)))
(assert (forall ((x_15 R_0) (x_2582 R_0) (x_2583 R_0))
	(x_13 Nil_1 (x_2 x_2582 x_2583) Nil_1)))
(assert (forall ((x_16 R_0) (x_2568 T_0) (x_15 R_0) (x_2584 T_0))
	(x_13 (x_1 (Atom_0 x_2584) (Atom_0 x_2568)) (Atom_0 x_2584) (Atom_0 x_2568))))
(assert (forall ((x_16 R_0) (x_2568 T_0) (x_15 R_0))
	(x_13 (x_1 Eps_0 (Atom_0 x_2568)) Eps_0 (Atom_0 x_2568))))
(assert (forall ((x_16 R_0) (x_2568 T_0) (x_15 R_0) (x_2585 R_0))
	(x_13 (x_1 (Star_0 x_2585) (Atom_0 x_2568)) (Star_0 x_2585) (Atom_0 x_2568))))
(assert (forall ((x_16 R_0) (x_2568 T_0) (x_15 R_0) (x_2586 R_0) (x_2587 R_0))
	(x_13 (x_1 (x_0 x_2586 x_2587) (Atom_0 x_2568)) (x_0 x_2586 x_2587) (Atom_0 x_2568))))
(assert (forall ((x_16 R_0) (x_2568 T_0) (x_15 R_0) (x_2588 R_0) (x_2589 R_0))
	(x_13 (x_1 (x_1 x_2588 x_2589) (Atom_0 x_2568)) (x_1 x_2588 x_2589) (Atom_0 x_2568))))
(assert (forall ((x_16 R_0) (x_2568 T_0) (x_15 R_0) (x_2590 R_0) (x_2591 R_0))
	(x_13 (x_1 (x_2 x_2590 x_2591) (Atom_0 x_2568)) (x_2 x_2590 x_2591) (Atom_0 x_2568))))
(assert (forall ((x_16 R_0) (x_15 R_0) (x_2592 T_0))
	(x_13 (x_1 (Atom_0 x_2592) Eps_0) (Atom_0 x_2592) Eps_0)))
(assert (forall ((x_16 R_0) (x_15 R_0))
	(x_13 (x_1 Eps_0 Eps_0) Eps_0 Eps_0)))
(assert (forall ((x_16 R_0) (x_15 R_0) (x_2593 R_0))
	(x_13 (x_1 (Star_0 x_2593) Eps_0) (Star_0 x_2593) Eps_0)))
(assert (forall ((x_16 R_0) (x_15 R_0) (x_2594 R_0) (x_2595 R_0))
	(x_13 (x_1 (x_0 x_2594 x_2595) Eps_0) (x_0 x_2594 x_2595) Eps_0)))
(assert (forall ((x_16 R_0) (x_15 R_0) (x_2596 R_0) (x_2597 R_0))
	(x_13 (x_1 (x_1 x_2596 x_2597) Eps_0) (x_1 x_2596 x_2597) Eps_0)))
(assert (forall ((x_16 R_0) (x_15 R_0) (x_2598 R_0) (x_2599 R_0))
	(x_13 (x_1 (x_2 x_2598 x_2599) Eps_0) (x_2 x_2598 x_2599) Eps_0)))
(assert (forall ((x_16 R_0) (x_2569 R_0) (x_15 R_0) (x_2600 T_0))
	(x_13 (x_1 (Atom_0 x_2600) (Star_0 x_2569)) (Atom_0 x_2600) (Star_0 x_2569))))
(assert (forall ((x_16 R_0) (x_2569 R_0) (x_15 R_0))
	(x_13 (x_1 Eps_0 (Star_0 x_2569)) Eps_0 (Star_0 x_2569))))
(assert (forall ((x_16 R_0) (x_2569 R_0) (x_15 R_0) (x_2601 R_0))
	(x_13 (x_1 (Star_0 x_2601) (Star_0 x_2569)) (Star_0 x_2601) (Star_0 x_2569))))
(assert (forall ((x_16 R_0) (x_2569 R_0) (x_15 R_0) (x_2602 R_0) (x_2603 R_0))
	(x_13 (x_1 (x_0 x_2602 x_2603) (Star_0 x_2569)) (x_0 x_2602 x_2603) (Star_0 x_2569))))
(assert (forall ((x_16 R_0) (x_2569 R_0) (x_15 R_0) (x_2604 R_0) (x_2605 R_0))
	(x_13 (x_1 (x_1 x_2604 x_2605) (Star_0 x_2569)) (x_1 x_2604 x_2605) (Star_0 x_2569))))
(assert (forall ((x_16 R_0) (x_2569 R_0) (x_15 R_0) (x_2606 R_0) (x_2607 R_0))
	(x_13 (x_1 (x_2 x_2606 x_2607) (Star_0 x_2569)) (x_2 x_2606 x_2607) (Star_0 x_2569))))
(assert (forall ((x_16 R_0) (x_2570 R_0) (x_2571 R_0) (x_15 R_0) (x_2608 T_0))
	(x_13 (x_1 (Atom_0 x_2608) (x_0 x_2570 x_2571)) (Atom_0 x_2608) (x_0 x_2570 x_2571))))
(assert (forall ((x_16 R_0) (x_2570 R_0) (x_2571 R_0) (x_15 R_0))
	(x_13 (x_1 Eps_0 (x_0 x_2570 x_2571)) Eps_0 (x_0 x_2570 x_2571))))
(assert (forall ((x_16 R_0) (x_2570 R_0) (x_2571 R_0) (x_15 R_0) (x_2609 R_0))
	(x_13 (x_1 (Star_0 x_2609) (x_0 x_2570 x_2571)) (Star_0 x_2609) (x_0 x_2570 x_2571))))
(assert (forall ((x_16 R_0) (x_2570 R_0) (x_2571 R_0) (x_15 R_0) (x_2610 R_0) (x_2611 R_0))
	(x_13 (x_1 (x_0 x_2610 x_2611) (x_0 x_2570 x_2571)) (x_0 x_2610 x_2611) (x_0 x_2570 x_2571))))
(assert (forall ((x_16 R_0) (x_2570 R_0) (x_2571 R_0) (x_15 R_0) (x_2612 R_0) (x_2613 R_0))
	(x_13 (x_1 (x_1 x_2612 x_2613) (x_0 x_2570 x_2571)) (x_1 x_2612 x_2613) (x_0 x_2570 x_2571))))
(assert (forall ((x_16 R_0) (x_2570 R_0) (x_2571 R_0) (x_15 R_0) (x_2614 R_0) (x_2615 R_0))
	(x_13 (x_1 (x_2 x_2614 x_2615) (x_0 x_2570 x_2571)) (x_2 x_2614 x_2615) (x_0 x_2570 x_2571))))
(assert (forall ((x_16 R_0) (x_2572 R_0) (x_2573 R_0) (x_15 R_0) (x_2616 T_0))
	(x_13 (x_1 (Atom_0 x_2616) (x_1 x_2572 x_2573)) (Atom_0 x_2616) (x_1 x_2572 x_2573))))
(assert (forall ((x_16 R_0) (x_2572 R_0) (x_2573 R_0) (x_15 R_0))
	(x_13 (x_1 Eps_0 (x_1 x_2572 x_2573)) Eps_0 (x_1 x_2572 x_2573))))
(assert (forall ((x_16 R_0) (x_2572 R_0) (x_2573 R_0) (x_15 R_0) (x_2617 R_0))
	(x_13 (x_1 (Star_0 x_2617) (x_1 x_2572 x_2573)) (Star_0 x_2617) (x_1 x_2572 x_2573))))
(assert (forall ((x_16 R_0) (x_2572 R_0) (x_2573 R_0) (x_15 R_0) (x_2618 R_0) (x_2619 R_0))
	(x_13 (x_1 (x_0 x_2618 x_2619) (x_1 x_2572 x_2573)) (x_0 x_2618 x_2619) (x_1 x_2572 x_2573))))
(assert (forall ((x_16 R_0) (x_2572 R_0) (x_2573 R_0) (x_15 R_0) (x_2620 R_0) (x_2621 R_0))
	(x_13 (x_1 (x_1 x_2620 x_2621) (x_1 x_2572 x_2573)) (x_1 x_2620 x_2621) (x_1 x_2572 x_2573))))
(assert (forall ((x_16 R_0) (x_2572 R_0) (x_2573 R_0) (x_15 R_0) (x_2622 R_0) (x_2623 R_0))
	(x_13 (x_1 (x_2 x_2622 x_2623) (x_1 x_2572 x_2573)) (x_2 x_2622 x_2623) (x_1 x_2572 x_2573))))
(assert (forall ((x_16 R_0) (x_2574 R_0) (x_2575 R_0) (x_15 R_0) (x_2624 T_0))
	(x_13 (x_1 (Atom_0 x_2624) (x_2 x_2574 x_2575)) (Atom_0 x_2624) (x_2 x_2574 x_2575))))
(assert (forall ((x_16 R_0) (x_2574 R_0) (x_2575 R_0) (x_15 R_0))
	(x_13 (x_1 Eps_0 (x_2 x_2574 x_2575)) Eps_0 (x_2 x_2574 x_2575))))
(assert (forall ((x_16 R_0) (x_2574 R_0) (x_2575 R_0) (x_15 R_0) (x_2625 R_0))
	(x_13 (x_1 (Star_0 x_2625) (x_2 x_2574 x_2575)) (Star_0 x_2625) (x_2 x_2574 x_2575))))
(assert (forall ((x_16 R_0) (x_2574 R_0) (x_2575 R_0) (x_15 R_0) (x_2626 R_0) (x_2627 R_0))
	(x_13 (x_1 (x_0 x_2626 x_2627) (x_2 x_2574 x_2575)) (x_0 x_2626 x_2627) (x_2 x_2574 x_2575))))
(assert (forall ((x_16 R_0) (x_2574 R_0) (x_2575 R_0) (x_15 R_0) (x_2628 R_0) (x_2629 R_0))
	(x_13 (x_1 (x_1 x_2628 x_2629) (x_2 x_2574 x_2575)) (x_1 x_2628 x_2629) (x_2 x_2574 x_2575))))
(assert (forall ((x_16 R_0) (x_2574 R_0) (x_2575 R_0) (x_15 R_0) (x_2630 R_0) (x_2631 R_0))
	(x_13 (x_1 (x_2 x_2630 x_2631) (x_2 x_2574 x_2575)) (x_2 x_2630 x_2631) (x_2 x_2574 x_2575))))
(assert (forall ((y_3 R_0))
	(eps_1 true_0 (Star_0 y_3))))
(assert (forall ((x_4339 Bool_0) (x_4340 Bool_0) (x_4341 Bool_0) (p_1 R_0) (q_2 R_0))
	(=> (and (eps_1 x_4340 p_1) (eps_1 x_4341 q_2) (and_0 x_4339 x_4340 x_4341)) (eps_1 x_4339 (x_2 p_1 q_2)))))
(assert (forall ((x_4342 Bool_0) (x_4343 Bool_0) (x_4344 Bool_0) (r_1 R_0) (q_1 R_0))
	(=> (and (eps_1 x_4343 r_1) (eps_1 x_4344 q_1) (and_0 x_4342 x_4343 x_4344)) (eps_1 x_4342 (x_1 r_1 q_1)))))
(assert (forall ((x_4345 Bool_0) (x_4346 Bool_0) (x_4347 Bool_0) (p_0 R_0) (q_0 R_0))
	(=> (and (eps_1 x_4346 p_0) (eps_1 x_4347 q_0) (or_0 x_4345 x_4346 x_4347)) (eps_1 x_4345 (x_0 p_0 q_0)))))
(assert (eps_1 true_0 Eps_0))
(assert (forall ((x_18 R_0) (x_2632 T_0))
	(eps_1 false_0 (Atom_0 x_2632))))
(assert (forall ((x_18 R_0))
	(eps_1 false_0 Nil_1)))
(assert (forall ((x_4351 R_0) (x_4352 R_0) (p_4 R_0) (y_4 T_0))
	(=> (and (step_0 x_4352 p_4 y_4) (x_3 x_4351 x_4352 (Star_0 p_4))) (step_0 x_4351 (Star_0 p_4) y_4))))
(assert (forall ((x_4355 R_0) (x_4356 R_0) (x_4357 R_0) (x_4358 R_0) (p_3 R_0) (q_5 R_0) (y_4 T_0))
	(=> (and (step_0 x_4356 p_3 y_4) (x_3 x_4357 x_4356 q_5) (step_0 x_4358 q_5 y_4) (x_9 x_4355 x_4357 x_4358) (eps_1 true_0 p_3)) (step_0 x_4355 (x_2 p_3 q_5) y_4))))
(assert (forall ((x_4361 R_0) (x_4362 R_0) (x_4363 R_0) (x_4360 Bool_0) (p_3 R_0) (q_5 R_0) (y_4 T_0))
	(=> (and (diseqBool_0 x_4360 true_0) (step_0 x_4362 p_3 y_4) (x_3 x_4363 x_4362 q_5) (x_9 x_4361 x_4363 Nil_1) (eps_1 x_4360 p_3)) (step_0 x_4361 (x_2 p_3 q_5) y_4))))
(assert (forall ((r_2 R_0) (q_4 R_0) (y_4 T_0))
	(=> (step_0 Nil_1 r_2 y_4) (step_0 Nil_1 (x_1 r_2 q_4) y_4))))
(assert (forall ((x_21 R_0) (x_2641 T_0) (r_2 R_0) (q_4 R_0) (y_4 T_0))
	(=> (and (step_0 Nil_1 q_4 y_4) (step_0 (Atom_0 x_2641) r_2 y_4)) (step_0 Nil_1 (x_1 r_2 q_4) y_4))))
(assert (forall ((x_21 R_0) (r_2 R_0) (q_4 R_0) (y_4 T_0))
	(=> (and (step_0 Nil_1 q_4 y_4) (step_0 Eps_0 r_2 y_4)) (step_0 Nil_1 (x_1 r_2 q_4) y_4))))
(assert (forall ((x_21 R_0) (x_2642 R_0) (r_2 R_0) (q_4 R_0) (y_4 T_0))
	(=> (and (step_0 Nil_1 q_4 y_4) (step_0 (Star_0 x_2642) r_2 y_4)) (step_0 Nil_1 (x_1 r_2 q_4) y_4))))
(assert (forall ((x_21 R_0) (x_2643 R_0) (x_2644 R_0) (r_2 R_0) (q_4 R_0) (y_4 T_0))
	(=> (and (step_0 Nil_1 q_4 y_4) (step_0 (x_0 x_2643 x_2644) r_2 y_4)) (step_0 Nil_1 (x_1 r_2 q_4) y_4))))
(assert (forall ((x_21 R_0) (x_2645 R_0) (x_2646 R_0) (r_2 R_0) (q_4 R_0) (y_4 T_0))
	(=> (and (step_0 Nil_1 q_4 y_4) (step_0 (x_1 x_2645 x_2646) r_2 y_4)) (step_0 Nil_1 (x_1 r_2 q_4) y_4))))
(assert (forall ((x_21 R_0) (x_2647 R_0) (x_2648 R_0) (r_2 R_0) (q_4 R_0) (y_4 T_0))
	(=> (and (step_0 Nil_1 q_4 y_4) (step_0 (x_2 x_2647 x_2648) r_2 y_4)) (step_0 Nil_1 (x_1 r_2 q_4) y_4))))
(assert (forall ((x_22 R_0) (x_2633 T_0) (x_21 R_0) (x_2649 T_0) (r_2 R_0) (q_4 R_0) (y_4 T_0))
	(=> (and (step_0 (Atom_0 x_2633) q_4 y_4) (step_0 (Atom_0 x_2649) r_2 y_4)) (step_0 (x_1 (Atom_0 x_2649) (Atom_0 x_2633)) (x_1 r_2 q_4) y_4))))
(assert (forall ((x_22 R_0) (x_2633 T_0) (x_21 R_0) (r_2 R_0) (q_4 R_0) (y_4 T_0))
	(=> (and (step_0 (Atom_0 x_2633) q_4 y_4) (step_0 Eps_0 r_2 y_4)) (step_0 (x_1 Eps_0 (Atom_0 x_2633)) (x_1 r_2 q_4) y_4))))
(assert (forall ((x_22 R_0) (x_2633 T_0) (x_21 R_0) (x_2650 R_0) (r_2 R_0) (q_4 R_0) (y_4 T_0))
	(=> (and (step_0 (Atom_0 x_2633) q_4 y_4) (step_0 (Star_0 x_2650) r_2 y_4)) (step_0 (x_1 (Star_0 x_2650) (Atom_0 x_2633)) (x_1 r_2 q_4) y_4))))
(assert (forall ((x_22 R_0) (x_2633 T_0) (x_21 R_0) (x_2651 R_0) (x_2652 R_0) (r_2 R_0) (q_4 R_0) (y_4 T_0))
	(=> (and (step_0 (Atom_0 x_2633) q_4 y_4) (step_0 (x_0 x_2651 x_2652) r_2 y_4)) (step_0 (x_1 (x_0 x_2651 x_2652) (Atom_0 x_2633)) (x_1 r_2 q_4) y_4))))
(assert (forall ((x_22 R_0) (x_2633 T_0) (x_21 R_0) (x_2653 R_0) (x_2654 R_0) (r_2 R_0) (q_4 R_0) (y_4 T_0))
	(=> (and (step_0 (Atom_0 x_2633) q_4 y_4) (step_0 (x_1 x_2653 x_2654) r_2 y_4)) (step_0 (x_1 (x_1 x_2653 x_2654) (Atom_0 x_2633)) (x_1 r_2 q_4) y_4))))
(assert (forall ((x_22 R_0) (x_2633 T_0) (x_21 R_0) (x_2655 R_0) (x_2656 R_0) (r_2 R_0) (q_4 R_0) (y_4 T_0))
	(=> (and (step_0 (Atom_0 x_2633) q_4 y_4) (step_0 (x_2 x_2655 x_2656) r_2 y_4)) (step_0 (x_1 (x_2 x_2655 x_2656) (Atom_0 x_2633)) (x_1 r_2 q_4) y_4))))
(assert (forall ((x_22 R_0) (x_21 R_0) (x_2657 T_0) (r_2 R_0) (q_4 R_0) (y_4 T_0))
	(=> (and (step_0 Eps_0 q_4 y_4) (step_0 (Atom_0 x_2657) r_2 y_4)) (step_0 (x_1 (Atom_0 x_2657) Eps_0) (x_1 r_2 q_4) y_4))))
(assert (forall ((x_22 R_0) (x_21 R_0) (r_2 R_0) (q_4 R_0) (y_4 T_0))
	(=> (and (step_0 Eps_0 q_4 y_4) (step_0 Eps_0 r_2 y_4)) (step_0 (x_1 Eps_0 Eps_0) (x_1 r_2 q_4) y_4))))
(assert (forall ((x_22 R_0) (x_21 R_0) (x_2658 R_0) (r_2 R_0) (q_4 R_0) (y_4 T_0))
	(=> (and (step_0 Eps_0 q_4 y_4) (step_0 (Star_0 x_2658) r_2 y_4)) (step_0 (x_1 (Star_0 x_2658) Eps_0) (x_1 r_2 q_4) y_4))))
(assert (forall ((x_22 R_0) (x_21 R_0) (x_2659 R_0) (x_2660 R_0) (r_2 R_0) (q_4 R_0) (y_4 T_0))
	(=> (and (step_0 Eps_0 q_4 y_4) (step_0 (x_0 x_2659 x_2660) r_2 y_4)) (step_0 (x_1 (x_0 x_2659 x_2660) Eps_0) (x_1 r_2 q_4) y_4))))
(assert (forall ((x_22 R_0) (x_21 R_0) (x_2661 R_0) (x_2662 R_0) (r_2 R_0) (q_4 R_0) (y_4 T_0))
	(=> (and (step_0 Eps_0 q_4 y_4) (step_0 (x_1 x_2661 x_2662) r_2 y_4)) (step_0 (x_1 (x_1 x_2661 x_2662) Eps_0) (x_1 r_2 q_4) y_4))))
(assert (forall ((x_22 R_0) (x_21 R_0) (x_2663 R_0) (x_2664 R_0) (r_2 R_0) (q_4 R_0) (y_4 T_0))
	(=> (and (step_0 Eps_0 q_4 y_4) (step_0 (x_2 x_2663 x_2664) r_2 y_4)) (step_0 (x_1 (x_2 x_2663 x_2664) Eps_0) (x_1 r_2 q_4) y_4))))
(assert (forall ((x_22 R_0) (x_2634 R_0) (x_21 R_0) (x_2665 T_0) (r_2 R_0) (q_4 R_0) (y_4 T_0))
	(=> (and (step_0 (Star_0 x_2634) q_4 y_4) (step_0 (Atom_0 x_2665) r_2 y_4)) (step_0 (x_1 (Atom_0 x_2665) (Star_0 x_2634)) (x_1 r_2 q_4) y_4))))
(assert (forall ((x_22 R_0) (x_2634 R_0) (x_21 R_0) (r_2 R_0) (q_4 R_0) (y_4 T_0))
	(=> (and (step_0 (Star_0 x_2634) q_4 y_4) (step_0 Eps_0 r_2 y_4)) (step_0 (x_1 Eps_0 (Star_0 x_2634)) (x_1 r_2 q_4) y_4))))
(assert (forall ((x_22 R_0) (x_2634 R_0) (x_21 R_0) (x_2666 R_0) (r_2 R_0) (q_4 R_0) (y_4 T_0))
	(=> (and (step_0 (Star_0 x_2634) q_4 y_4) (step_0 (Star_0 x_2666) r_2 y_4)) (step_0 (x_1 (Star_0 x_2666) (Star_0 x_2634)) (x_1 r_2 q_4) y_4))))
(assert (forall ((x_22 R_0) (x_2634 R_0) (x_21 R_0) (x_2667 R_0) (x_2668 R_0) (r_2 R_0) (q_4 R_0) (y_4 T_0))
	(=> (and (step_0 (Star_0 x_2634) q_4 y_4) (step_0 (x_0 x_2667 x_2668) r_2 y_4)) (step_0 (x_1 (x_0 x_2667 x_2668) (Star_0 x_2634)) (x_1 r_2 q_4) y_4))))
(assert (forall ((x_22 R_0) (x_2634 R_0) (x_21 R_0) (x_2669 R_0) (x_2670 R_0) (r_2 R_0) (q_4 R_0) (y_4 T_0))
	(=> (and (step_0 (Star_0 x_2634) q_4 y_4) (step_0 (x_1 x_2669 x_2670) r_2 y_4)) (step_0 (x_1 (x_1 x_2669 x_2670) (Star_0 x_2634)) (x_1 r_2 q_4) y_4))))
(assert (forall ((x_22 R_0) (x_2634 R_0) (x_21 R_0) (x_2671 R_0) (x_2672 R_0) (r_2 R_0) (q_4 R_0) (y_4 T_0))
	(=> (and (step_0 (Star_0 x_2634) q_4 y_4) (step_0 (x_2 x_2671 x_2672) r_2 y_4)) (step_0 (x_1 (x_2 x_2671 x_2672) (Star_0 x_2634)) (x_1 r_2 q_4) y_4))))
(assert (forall ((x_22 R_0) (x_2635 R_0) (x_2636 R_0) (x_21 R_0) (x_2673 T_0) (r_2 R_0) (q_4 R_0) (y_4 T_0))
	(=> (and (step_0 (x_0 x_2635 x_2636) q_4 y_4) (step_0 (Atom_0 x_2673) r_2 y_4)) (step_0 (x_1 (Atom_0 x_2673) (x_0 x_2635 x_2636)) (x_1 r_2 q_4) y_4))))
(assert (forall ((x_22 R_0) (x_2635 R_0) (x_2636 R_0) (x_21 R_0) (r_2 R_0) (q_4 R_0) (y_4 T_0))
	(=> (and (step_0 (x_0 x_2635 x_2636) q_4 y_4) (step_0 Eps_0 r_2 y_4)) (step_0 (x_1 Eps_0 (x_0 x_2635 x_2636)) (x_1 r_2 q_4) y_4))))
(assert (forall ((x_22 R_0) (x_2635 R_0) (x_2636 R_0) (x_21 R_0) (x_2674 R_0) (r_2 R_0) (q_4 R_0) (y_4 T_0))
	(=> (and (step_0 (x_0 x_2635 x_2636) q_4 y_4) (step_0 (Star_0 x_2674) r_2 y_4)) (step_0 (x_1 (Star_0 x_2674) (x_0 x_2635 x_2636)) (x_1 r_2 q_4) y_4))))
(assert (forall ((x_22 R_0) (x_2635 R_0) (x_2636 R_0) (x_21 R_0) (x_2675 R_0) (x_2676 R_0) (r_2 R_0) (q_4 R_0) (y_4 T_0))
	(=> (and (step_0 (x_0 x_2635 x_2636) q_4 y_4) (step_0 (x_0 x_2675 x_2676) r_2 y_4)) (step_0 (x_1 (x_0 x_2675 x_2676) (x_0 x_2635 x_2636)) (x_1 r_2 q_4) y_4))))
(assert (forall ((x_22 R_0) (x_2635 R_0) (x_2636 R_0) (x_21 R_0) (x_2677 R_0) (x_2678 R_0) (r_2 R_0) (q_4 R_0) (y_4 T_0))
	(=> (and (step_0 (x_0 x_2635 x_2636) q_4 y_4) (step_0 (x_1 x_2677 x_2678) r_2 y_4)) (step_0 (x_1 (x_1 x_2677 x_2678) (x_0 x_2635 x_2636)) (x_1 r_2 q_4) y_4))))
(assert (forall ((x_22 R_0) (x_2635 R_0) (x_2636 R_0) (x_21 R_0) (x_2679 R_0) (x_2680 R_0) (r_2 R_0) (q_4 R_0) (y_4 T_0))
	(=> (and (step_0 (x_0 x_2635 x_2636) q_4 y_4) (step_0 (x_2 x_2679 x_2680) r_2 y_4)) (step_0 (x_1 (x_2 x_2679 x_2680) (x_0 x_2635 x_2636)) (x_1 r_2 q_4) y_4))))
(assert (forall ((x_22 R_0) (x_2637 R_0) (x_2638 R_0) (x_21 R_0) (x_2681 T_0) (r_2 R_0) (q_4 R_0) (y_4 T_0))
	(=> (and (step_0 (x_1 x_2637 x_2638) q_4 y_4) (step_0 (Atom_0 x_2681) r_2 y_4)) (step_0 (x_1 (Atom_0 x_2681) (x_1 x_2637 x_2638)) (x_1 r_2 q_4) y_4))))
(assert (forall ((x_22 R_0) (x_2637 R_0) (x_2638 R_0) (x_21 R_0) (r_2 R_0) (q_4 R_0) (y_4 T_0))
	(=> (and (step_0 (x_1 x_2637 x_2638) q_4 y_4) (step_0 Eps_0 r_2 y_4)) (step_0 (x_1 Eps_0 (x_1 x_2637 x_2638)) (x_1 r_2 q_4) y_4))))
(assert (forall ((x_22 R_0) (x_2637 R_0) (x_2638 R_0) (x_21 R_0) (x_2682 R_0) (r_2 R_0) (q_4 R_0) (y_4 T_0))
	(=> (and (step_0 (x_1 x_2637 x_2638) q_4 y_4) (step_0 (Star_0 x_2682) r_2 y_4)) (step_0 (x_1 (Star_0 x_2682) (x_1 x_2637 x_2638)) (x_1 r_2 q_4) y_4))))
(assert (forall ((x_22 R_0) (x_2637 R_0) (x_2638 R_0) (x_21 R_0) (x_2683 R_0) (x_2684 R_0) (r_2 R_0) (q_4 R_0) (y_4 T_0))
	(=> (and (step_0 (x_1 x_2637 x_2638) q_4 y_4) (step_0 (x_0 x_2683 x_2684) r_2 y_4)) (step_0 (x_1 (x_0 x_2683 x_2684) (x_1 x_2637 x_2638)) (x_1 r_2 q_4) y_4))))
(assert (forall ((x_22 R_0) (x_2637 R_0) (x_2638 R_0) (x_21 R_0) (x_2685 R_0) (x_2686 R_0) (r_2 R_0) (q_4 R_0) (y_4 T_0))
	(=> (and (step_0 (x_1 x_2637 x_2638) q_4 y_4) (step_0 (x_1 x_2685 x_2686) r_2 y_4)) (step_0 (x_1 (x_1 x_2685 x_2686) (x_1 x_2637 x_2638)) (x_1 r_2 q_4) y_4))))
(assert (forall ((x_22 R_0) (x_2637 R_0) (x_2638 R_0) (x_21 R_0) (x_2687 R_0) (x_2688 R_0) (r_2 R_0) (q_4 R_0) (y_4 T_0))
	(=> (and (step_0 (x_1 x_2637 x_2638) q_4 y_4) (step_0 (x_2 x_2687 x_2688) r_2 y_4)) (step_0 (x_1 (x_2 x_2687 x_2688) (x_1 x_2637 x_2638)) (x_1 r_2 q_4) y_4))))
(assert (forall ((x_22 R_0) (x_2639 R_0) (x_2640 R_0) (x_21 R_0) (x_2689 T_0) (r_2 R_0) (q_4 R_0) (y_4 T_0))
	(=> (and (step_0 (x_2 x_2639 x_2640) q_4 y_4) (step_0 (Atom_0 x_2689) r_2 y_4)) (step_0 (x_1 (Atom_0 x_2689) (x_2 x_2639 x_2640)) (x_1 r_2 q_4) y_4))))
(assert (forall ((x_22 R_0) (x_2639 R_0) (x_2640 R_0) (x_21 R_0) (r_2 R_0) (q_4 R_0) (y_4 T_0))
	(=> (and (step_0 (x_2 x_2639 x_2640) q_4 y_4) (step_0 Eps_0 r_2 y_4)) (step_0 (x_1 Eps_0 (x_2 x_2639 x_2640)) (x_1 r_2 q_4) y_4))))
(assert (forall ((x_22 R_0) (x_2639 R_0) (x_2640 R_0) (x_21 R_0) (x_2690 R_0) (r_2 R_0) (q_4 R_0) (y_4 T_0))
	(=> (and (step_0 (x_2 x_2639 x_2640) q_4 y_4) (step_0 (Star_0 x_2690) r_2 y_4)) (step_0 (x_1 (Star_0 x_2690) (x_2 x_2639 x_2640)) (x_1 r_2 q_4) y_4))))
(assert (forall ((x_22 R_0) (x_2639 R_0) (x_2640 R_0) (x_21 R_0) (x_2691 R_0) (x_2692 R_0) (r_2 R_0) (q_4 R_0) (y_4 T_0))
	(=> (and (step_0 (x_2 x_2639 x_2640) q_4 y_4) (step_0 (x_0 x_2691 x_2692) r_2 y_4)) (step_0 (x_1 (x_0 x_2691 x_2692) (x_2 x_2639 x_2640)) (x_1 r_2 q_4) y_4))))
(assert (forall ((x_22 R_0) (x_2639 R_0) (x_2640 R_0) (x_21 R_0) (x_2693 R_0) (x_2694 R_0) (r_2 R_0) (q_4 R_0) (y_4 T_0))
	(=> (and (step_0 (x_2 x_2639 x_2640) q_4 y_4) (step_0 (x_1 x_2693 x_2694) r_2 y_4)) (step_0 (x_1 (x_1 x_2693 x_2694) (x_2 x_2639 x_2640)) (x_1 r_2 q_4) y_4))))
(assert (forall ((x_22 R_0) (x_2639 R_0) (x_2640 R_0) (x_21 R_0) (x_2695 R_0) (x_2696 R_0) (r_2 R_0) (q_4 R_0) (y_4 T_0))
	(=> (and (step_0 (x_2 x_2639 x_2640) q_4 y_4) (step_0 (x_2 x_2695 x_2696) r_2 y_4)) (step_0 (x_1 (x_2 x_2695 x_2696) (x_2 x_2639 x_2640)) (x_1 r_2 q_4) y_4))))
(assert (forall ((x_4493 R_0) (x_4494 R_0) (x_4495 R_0) (p_2 R_0) (q_3 R_0) (y_4 T_0))
	(=> (and (step_0 x_4494 p_2 y_4) (step_0 x_4495 q_3 y_4) (x_9 x_4493 x_4494 x_4495)) (step_0 x_4493 (x_0 p_2 q_3) y_4))))
(assert (forall ((b_1 T_0))
	(step_0 Eps_0 (Atom_0 b_1) b_1)))
(assert (forall ((b_1 T_0) (y_4 T_0))
	(=> (diseqT_0 b_1 y_4) (step_0 Nil_1 (Atom_0 b_1) y_4))))
(assert (forall ((x_20 R_0) (y_4 T_0))
	(step_0 Nil_1 Eps_0 y_4)))
(assert (forall ((x_20 R_0) (y_4 T_0))
	(step_0 Nil_1 Nil_1 y_4)))
(assert (forall ((x_4501 Bool_0) (x_4502 R_0) (z_0 T_0) (xs_0 list_0) (x_23 R_0))
	(=> (and (step_0 x_4502 x_23 z_0) (rec_0 x_4501 x_4502 xs_0)) (rec_0 x_4501 x_23 (cons_0 z_0 xs_0)))))
(assert (forall ((x_4504 Bool_0) (x_23 R_0))
	(=> (eps_1 x_4504 x_23) (rec_0 x_4504 x_23 nil_0))))
(assert (forall ((x_4509 Bool_0) (x_4506 R_0) (x_4507 R_0) (p_5 R_0) (s_0 list_0))
	(=> (and (diseqBool_0 x_4509 true_0) (eps_1 x_4509 p_5) (x_3 x_4506 p_5 p_5) (x_13 x_4507 p_5 x_4506) (rec_0 true_0 x_4507 s_0)) false)))
(check-sat)
(get-model)
